p cnf 60 662
1 2 3 0
4 5 6 0
7 8 9 0
10 11 12 0
13 14 15 0
16 17 18 0
19 20 21 0
22 23 24 0
25 26 27 0
28 29 30 0
31 32 33 0
34 35 36 0
37 38 39 0
40 41 42 0
43 44 45 0
46 47 48 0
49 50 51 0
52 53 54 0
55 56 57 0
58 59 60 0
-1 -2 0
-1 -3 0
-2 -3 0
-4 -5 0
-4 -6 0
-5 -6 0
-7 -8 0
-7 -9 0
-8 -9 0
-10 -11 0
-10 -12 0
-11 -12 0
-13 -14 0
-13 -15 0
-14 -15 0
-16 -17 0
-16 -18 0
-17 -18 0
-19 -20 0
-19 -21 0
-20 -21 0
-22 -23 0
-22 -24 0
-23 -24 0
-25 -26 0
-25 -27 0
-26 -27 0
-28 -29 0
-28 -30 0
-29 -30 0
-31 -32 0
-31 -33 0
-32 -33 0
-34 -35 0
-34 -36 0
-35 -36 0
-37 -38 0
-37 -39 0
-38 -39 0
-40 -41 0
-40 -42 0
-41 -42 0
-43 -44 0
-43 -45 0
-44 -45 0
-46 -47 0
-46 -48 0
-47 -48 0
-49 -50 0
-49 -51 0
-50 -51 0
-52 -53 0
-52 -54 0
-53 -54 0
-55 -56 0
-55 -57 0
-56 -57 0
-58 -59 0
-58 -60 0
-59 -60 0
-1 -4 0
-1 -7 0
-1 -10 0
-1 -13 0
-1 -16 0
-1 -19 0
-1 -22 0
-1 -28 0
-1 -43 0
-1 -46 0
-1 -49 0
-1 -52 0
-4 -1 0
-4 -10 0
-4 -13 0
-4 -16 0
-4 -19 0
-4 -25 0
-4 -49 0
-4 -52 0
-4 -55 0
-4 -58 0
-7 -1 0
-7 -16 0
-7 -19 0
-7 -22 0
-7 -25 0
-7 -34 0
-7 -37 0
-7 -46 0
-7 -55 0
-7 -58 0
-10 -1 0
-10 -4 0
-10 -13 0
-10 -22 0
-10 -25 0
-10 -31 0
-10 -34 0
-10 -37 0
-10 -40 0
-10 -43 0
-10 -52 0
-10 -58 0
-13 -1 0
-13 -4 0
-13 -10 0
-13 -19 0
-13 -22 0
-13 -25 0
-13 -31 0
-13 -34 0
-13 -37 0
-13 -52 0
-13 -55 0
-13 -58 0
-16 -1 0
-16 -4 0
-16 -7 0
-16 -22 0
-16 -25 0
-16 -28 0
-16 -37 0
-16 -49 0
-16 -58 0
-19 -1 0
-19 -4 0
-19 -7 0
-19 -13 0
-19 -31 0
-19 -34 0
-19 -37 0
-19 -43 0
-19 -52 0
-19 -58 0
-22 -1 0
-22 -7 0
-22 -10 0
-22 -13 0
-22 -16 0
-22 -28 0
-22 -46 0
-22 -55 0
-22 -58 0
-25 -4 0
-25 -7 0
-25 -10 0
-25 -13 0
-25 -16 0
-25 -31 0
-25 -37 0
-25 -40 0
-25 -43 0
-25 -49 0
-28 -1 0
-28 -16 0
-28 -22 0
-28 -31 0
-28 -34 0
-28 -37 0
-28 -40 0
-28 -43 0
-28 -49 0
-28 -55 0
-31 -10 0
-31 -13 0
-31 -19 0
-31 -25 0
-31 -28 0
-31 -34 0
-31 -37 0
-31 -40 0
-31 -52 0
-31 -58 0
-34 -7 0
-34 -10 0
-34 -13 0
-34 -19 0
-34 -28 0
-34 -31 0
-34 -43 0
-34 -52 0
-34 -58 0
-37 -7 0
-37 -10 0
-37 -13 0
-37 -16 0
-37 -19 0
-37 -25 0
-37 -28 0
-37 -31 0
-40 -10 0
-40 -25 0
-40 -28 0
-40 -31 0
-40 -46 0
-40 -49 0
-40 -52 0
-40 -55 0
-40 -58 0
-43 -1 0
-43 -10 0
-43 -19 0
-43 -25 0
-43 -28 0
-43 -34 0
-43 -46 0
-43 -49 0
-43 -52 0
-43 -55 0
-43 -58 0
-46 -1 0
-46 -7 0
-46 -22 0
-46 -40 0
-46 -43 0
-46 -49 0
-46 -55 0
-49 -1 0
-49 -4 0
-49 -16 0
-49 -25 0
-49 -28 0
-49 -40 0
-49 -43 0
-49 -46 0
-52 -1 0
-52 -4 0
-52 -10 0
-52 -13 0
-52 -19 0
-52 -31 0
-52 -34 0
-52 -40 0
-52 -43 0
-55 -4 0
-55 -7 0
-55 -13 0
-55 -22 0
-55 -28 0
-55 -40 0
-55 -43 0
-55 -46 0
-58 -4 0
-58 -7 0
-58 -10 0
-58 -13 0
-58 -16 0
-58 -19 0
-58 -22 0
-58 -31 0
-58 -34 0
-58 -40 0
-58 -43 0
-2 -5 0
-2 -8 0
-2 -11 0
-2 -14 0
-2 -17 0
-2 -20 0
-2 -23 0
-2 -29 0
-2 -44 0
-2 -47 0
-2 -50 0
-2 -53 0
-5 -2 0
-5 -11 0
-5 -14 0
-5 -17 0
-5 -20 0
-5 -26 0
-5 -50 0
-5 -53 0
-5 -56 0
-5 -59 0
-8 -2 0
-8 -17 0
-8 -20 0
-8 -23 0
-8 -26 0
-8 -35 0
-8 -38 0
-8 -47 0
-8 -56 0
-8 -59 0
-11 -2 0
-11 -5 0
-11 -14 0
-11 -23 0
-11 -26 0
-11 -32 0
-11 -35 0
-11 -38 0
-11 -41 0
-11 -44 0
-11 -53 0
-11 -59 0
-14 -2 0
-14 -5 0
-14 -11 0
-14 -20 0
-14 -23 0
-14 -26 0
-14 -32 0
-14 -35 0
-14 -38 0
-14 -53 0
-14 -56 0
-14 -59 0
-17 -2 0
-17 -5 0
-17 -8 0
-17 -23 0
-17 -26 0
-17 -29 0
-17 -38 0
-17 -50 0
-17 -59 0
-20 -2 0
-20 -5 0
-20 -8 0
-20 -14 0
-20 -32 0
-20 -35 0
-20 -38 0
-20 -44 0
-20 -53 0
-20 -59 0
-23 -2 0
-23 -8 0
-23 -11 0
-23 -14 0
-23 -17 0
-23 -29 0
-23 -47 0
-23 -56 0
-23 -59 0
-26 -5 0
-26 -8 0
-26 -11 0
-26 -14 0
-26 -17 0
-26 -32 0
-26 -38 0
-26 -41 0
-26 -44 0
-26 -50 0
-29 -2 0
-29 -17 0
-29 -23 0
-29 -32 0
-29 -35 0
-29 -38 0
-29 -41 0
-29 -44 0
-29 -50 0
-29 -56 0
-32 -11 0
-32 -14 0
-32 -20 0
-32 -26 0
-32 -29 0
-32 -35 0
-32 -38 0
-32 -41 0
-32 -53 0
-32 -59 0
-35 -8 0
-35 -11 0
-35 -14 0
-35 -20 0
-35 -29 0
-35 -32 0
-35 -44 0
-35 -53 0
-35 -59 0
-38 -8 0
-38 -11 0
-38 -14 0
-38 -17 0
-38 -20 0
-38 -26 0
-38 -29 0
-38 -32 0
-41 -11 0
-41 -26 0
-41 -29 0
-41 -32 0
-41 -47 0
-41 -50 0
-41 -53 0
-41 -56 0
-41 -59 0
-44 -2 0
-44 -11 0
-44 -20 0
-44 -26 0
-44 -29 0
-44 -35 0
-44 -47 0
-44 -50 0
-44 -53 0
-44 -56 0
-44 -59 0
-47 -2 0
-47 -8 0
-47 -23 0
-47 -41 0
-47 -44 0
-47 -50 0
-47 -56 0
-50 -2 0
-50 -5 0
-50 -17 0
-50 -26 0
-50 -29 0
-50 -41 0
-50 -44 0
-50 -47 0
-53 -2 0
-53 -5 0
-53 -11 0
-53 -14 0
-53 -20 0
-53 -32 0
-53 -35 0
-53 -41 0
-53 -44 0
-56 -5 0
-56 -8 0
-56 -14 0
-56 -23 0
-56 -29 0
-56 -41 0
-56 -44 0
-56 -47 0
-59 -5 0
-59 -8 0
-59 -11 0
-59 -14 0
-59 -17 0
-59 -20 0
-59 -23 0
-59 -32 0
-59 -35 0
-59 -41 0
-59 -44 0
-3 -6 0
-3 -9 0
-3 -12 0
-3 -15 0
-3 -18 0
-3 -21 0
-3 -24 0
-3 -30 0
-3 -45 0
-3 -48 0
-3 -51 0
-3 -54 0
-6 -3 0
-6 -12 0
-6 -15 0
-6 -18 0
-6 -21 0
-6 -27 0
-6 -51 0
-6 -54 0
-6 -57 0
-6 -60 0
-9 -3 0
-9 -18 0
-9 -21 0
-9 -24 0
-9 -27 0
-9 -36 0
-9 -39 0
-9 -48 0
-9 -57 0
-9 -60 0
-12 -3 0
-12 -6 0
-12 -15 0
-12 -24 0
-12 -27 0
-12 -33 0
-12 -36 0
-12 -39 0
-12 -42 0
-12 -45 0
-12 -54 0
-12 -60 0
-15 -3 0
-15 -6 0
-15 -12 0
-15 -21 0
-15 -24 0
-15 -27 0
-15 -33 0
-15 -36 0
-15 -39 0
-15 -54 0
-15 -57 0
-15 -60 0
-18 -3 0
-18 -6 0
-18 -9 0
-18 -24 0
-18 -27 0
-18 -30 0
-18 -39 0
-18 -51 0
-18 -60 0
-21 -3 0
-21 -6 0
-21 -9 0
-21 -15 0
-21 -33 0
-21 -36 0
-21 -39 0
-21 -45 0
-21 -54 0
-21 -60 0
-24 -3 0
-24 -9 0
-24 -12 0
-24 -15 0
-24 -18 0
-24 -30 0
-24 -48 0
-24 -57 0
-24 -60 0
-27 -6 0
-27 -9 0
-27 -12 0
-27 -15 0
-27 -18 0
-27 -33 0
-27 -39 0
-27 -42 0
-27 -45 0
-27 -51 0
-30 -3 0
-30 -18 0
-30 -24 0
-30 -33 0
-30 -36 0
-30 -39 0
-30 -42 0
-30 -45 0
-30 -51 0
-30 -57 0
-33 -12 0
-33 -15 0
-33 -21 0
-33 -27 0
-33 -30 0
-33 -36 0
-33 -39 0
-33 -42 0
-33 -54 0
-33 -60 0
-36 -9 0
-36 -12 0
-36 -15 0
-36 -21 0
-36 -30 0
-36 -33 0
-36 -45 0
-36 -54 0
-36 -60 0
-39 -9 0
-39 -12 0
-39 -15 0
-39 -18 0
-39 -21 0
-39 -27 0
-39 -30 0
-39 -33 0
-42 -12 0
-42 -27 0
-42 -30 0
-42 -33 0
-42 -48 0
-42 -51 0
-42 -54 0
-42 -57 0
-42 -60 0
-45 -3 0
-45 -12 0
-45 -21 0
-45 -27 0
-45 -30 0
-45 -36 0
-45 -48 0
-45 -51 0
-45 -54 0
-45 -57 0
-45 -60 0
-48 -3 0
-48 -9 0
-48 -24 0
-48 -42 0
-48 -45 0
-48 -51 0
-48 -57 0
-51 -3 0
-51 -6 0
-51 -18 0
-51 -27 0
-51 -30 0
-51 -42 0
-51 -45 0
-51 -48 0
-54 -3 0
-54 -6 0
-54 -12 0
-54 -15 0
-54 -21 0
-54 -33 0
-54 -36 0
-54 -42 0
-54 -45 0
-57 -6 0
-57 -9 0
-57 -15 0
-57 -24 0
-57 -30 0
-57 -42 0
-57 -45 0
-57 -48 0
-60 -6 0
-60 -9 0
-60 -12 0
-60 -15 0
-60 -18 0
-60 -21 0
-60 -24 0
-60 -33 0
-60 -36 0
-60 -42 0
-60 -45 0
